c colouring generated by benchmark framework
p edge 500 121275
v 1 71
v 2 53
v 3 58
v 4 25
v 5 7
v 6 28
v 7 62
v 8 71
v 9 78
v 10 46
v 11 22
v 12 72
v 13 21
v 14 51
v 15 52
v 16 53
v 17 29
v 18 89
v 19 41
v 20 40
v 21 42
v 22 10
v 23 19
v 24 36
v 25 80
v 26 11
v 27 65
v 28 58
v 29 65
v 30 38
v 31 68
v 32 33
v 33 54
v 34 81
v 35 15
v 36 14
v 37 14
v 38 46
v 39 36
v 40 91
v 41 73
v 42 16
v 43 42
v 44 31
v 45 78
v 46 87
v 47 29
v 48 79
v 49 15
v 50 48
v 51 73
v 52 70
v 53 42
v 54 69
v 55 17
v 56 37
v 57 48
v 58 44
v 59 2
v 60 4
v 61 58
v 62 42
v 63 13
v 64 60
v 65 29
v 66 88
v 67 77
v 68 54
v 69 74
v 70 78
v 71 55
v 72 16
v 73 19
v 74 56
v 75 73
v 76 51
v 77 28
v 78 60
v 79 23
v 80 76
v 81 65
v 82 21
v 83 53
v 84 65
v 85 18
v 86 74
v 87 30
v 88 69
v 89 48
v 90 68
v 91 15
v 92 55
v 93 46
v 94 39
v 95 24
v 96 28
v 97 18
v 98 38
v 99 13
v 100 91
v 101 18
v 102 4
v 103 86
v 104 40
v 105 4
v 106 80
v 107 19
v 108 46
v 109 55
v 110 63
v 111 3
v 112 5
v 113 74
v 114 21
v 115 85
v 116 49
v 117 36
v 118 59
v 119 75
v 120 65
v 121 48
v 122 11
v 123 17
v 124 30
v 125 56
v 126 1
v 127 56
v 128 66
v 129 38
v 130 28
v 131 66
v 132 7
v 133 81
v 134 54
v 135 31
v 136 14
v 137 2
v 138 25
v 139 72
v 140 89
v 141 27
v 142 74
v 143 90
v 144 2
v 145 5
v 146 57
v 147 91
v 148 15
v 149 0
v 150 52
v 151 31
v 152 71
v 153 12
v 154 55
v 155 33
v 156 59
v 157 84
v 158 45
v 159 51
v 160 88
v 161 55
v 162 11
v 163 5
v 164 2
v 165 72
v 166 14
v 167 0
v 168 65
v 169 0
v 170 83
v 171 82
v 172 64
v 173 25
v 174 46
v 175 48
v 176 45
v 177 17
v 178 12
v 179 60
v 180 29
v 181 35
v 182 10
v 183 20
v 184 1
v 185 82
v 186 8
v 187 16
v 188 69
v 189 43
v 190 11
v 191 12
v 192 33
v 193 37
v 194 86
v 195 54
v 196 74
v 197 49
v 198 26
v 199 90
v 200 67
v 201 58
v 202 42
v 203 68
v 204 5
v 205 43
v 206 20
v 207 65
v 208 3
v 209 48
v 210 55
v 211 36
v 212 24
v 213 22
v 214 44
v 215 14
v 216 62
v 217 70
v 218 19
v 219 18
v 220 46
v 221 23
v 222 23
v 223 63
v 224 80
v 225 1
v 226 74
v 227 84
v 228 29
v 229 59
v 230 75
v 231 61
v 232 0
v 233 9
v 234 15
v 235 38
v 236 61
v 237 6
v 238 53
v 239 29
v 240 45
v 241 72
v 242 35
v 243 61
v 244 62
v 245 12
v 246 85
v 247 1
v 248 79
v 249 31
v 250 32
v 251 47
v 252 78
v 253 64
v 254 23
v 255 57
v 256 55
v 257 25
v 258 77
v 259 7
v 260 83
v 261 44
v 262 40
v 263 15
v 264 3
v 265 1
v 266 29
v 267 6
v 268 85
v 269 21
v 270 78
v 271 90
v 272 20
v 273 71
v 274 8
v 275 66
v 276 22
v 277 55
v 278 70
v 279 34
v 280 91
v 281 44
v 282 75
v 283 60
v 284 58
v 285 86
v 286 10
v 287 44
v 288 44
v 289 0
v 290 31
v 291 54
v 292 36
v 293 23
v 294 81
v 295 30
v 296 15
v 297 77
v 298 66
v 299 63
v 300 20
v 301 58
v 302 33
v 303 5
v 304 45
v 305 22
v 306 1
v 307 89
v 308 44
v 309 47
v 310 85
v 311 91
v 312 28
v 313 72
v 314 78
v 315 64
v 316 45
v 317 40
v 318 89
v 319 25
v 320 3
v 321 34
v 322 59
v 323 7
v 324 62
v 325 60
v 326 76
v 327 7
v 328 36
v 329 61
v 330 81
v 331 60
v 332 13
v 333 51
v 334 53
v 335 73
v 336 76
v 337 29
v 338 24
v 339 24
v 340 37
v 341 53
v 342 51
v 343 87
v 344 8
v 345 5
v 346 66
v 347 65
v 348 27
v 349 64
v 350 84
v 351 41
v 352 33
v 353 72
v 354 44
v 355 13
v 356 76
v 357 47
v 358 54
v 359 0
v 360 41
v 361 27
v 362 77
v 363 37
v 364 49
v 365 23
v 366 19
v 367 55
v 368 77
v 369 6
v 370 56
v 371 62
v 372 43
v 373 10
v 374 16
v 375 82
v 376 30
v 377 11
v 378 91
v 379 61
v 380 33
v 381 71
v 382 58
v 383 58
v 384 72
v 385 89
v 386 22
v 387 72
v 388 3
v 389 79
v 390 12
v 391 55
v 392 76
v 393 66
v 394 11
v 395 47
v 396 68
v 397 7
v 398 12
v 399 81
v 400 69
v 401 18
v 402 70
v 403 82
v 404 79
v 405 67
v 406 26
v 407 48
v 408 88
v 409 0
v 410 50
v 411 80
v 412 8
v 413 80
v 414 23
v 415 82
v 416 47
v 417 35
v 418 31
v 419 70
v 420 20
v 421 86
v 422 42
v 423 2
v 424 87
v 425 49
v 426 19
v 427 16
v 428 40
v 429 61
v 430 39
v 431 34
v 432 53
v 433 3
v 434 14
v 435 63
v 436 14
v 437 64
v 438 56
v 439 38
v 440 11
v 441 31
v 442 26
v 443 35
v 444 6
v 445 14
v 446 87
v 447 11
v 448 12
v 449 61
v 450 5
v 451 49
v 452 19
v 453 43
v 454 49
v 455 7
v 456 80
v 457 0
v 458 4
v 459 58
v 460 69
v 461 60
v 462 47
v 463 1
v 464 24
v 465 87
v 466 86
v 467 11
v 468 57
v 469 5
v 470 13
v 471 28
v 472 58
v 473 39
v 474 75
v 475 33
v 476 36
v 477 17
v 478 55
v 479 31
v 480 65
v 481 30
v 482 56
v 483 4
v 484 38
v 485 6
v 486 5
v 487 30
v 488 57
v 489 82
v 490 28
v 491 46
v 492 25
v 493 19
v 494 69
v 495 82
v 496 30
v 497 23
v 498 28
v 499 84
v 500 22
